% Auto-generated by scripts/generate_dzn.py
% problem_type   = shift_scheduling
% instance       = shift_scheduling_6
% source_json    = instances_json/1_medium_blowup/shift_scheduling_6.json
% blowup         = 2.4408602150537635
% representation = NFA

mode = 1;

sequence_length = 28;
n_constraints = 3;
Q = 35;
S = 4;
q0 = [1, 1, 1];
F = [{27, 28, 29, 30, 31}, {23, 24, 25, 26, 27}, {31, 32, 33, 34, 35}];
d_dfa = array3d(1..3, 1..35, 1..4, [
  % k = 1
    0, 0, 0, 0,
    0, 0, 0, 0,
    0, 0, 0, 0,
    0, 0, 0, 0,
    0, 0, 0, 0,
    0, 0, 0, 0,
    0, 0, 0, 0,
    0, 0, 0, 0,
    0, 0, 0, 0,
    0, 0, 0, 0,
    0, 0, 0, 0,
    0, 0, 0, 0,
    0, 0, 0, 0,
    0, 0, 0, 0,
    0, 0, 0, 0,
    0, 0, 0, 0,
    0, 0, 0, 0,
    0, 0, 0, 0,
    0, 0, 0, 0,
    0, 0, 0, 0,
    0, 0, 0, 0,
    0, 0, 0, 0,
    0, 0, 0, 0,
    0, 0, 0, 0,
    0, 0, 0, 0,
    0, 0, 0, 0,
    0, 0, 0, 0,
    0, 0, 0, 0,
    0, 0, 0, 0,
    0, 0, 0, 0,
    0, 0, 0, 0,
    0, 0, 0, 0,
    0, 0, 0, 0,
    0, 0, 0, 0,
    0, 0, 0, 0,

  % k = 2
    0, 0, 0, 0,
    0, 0, 0, 0,
    0, 0, 0, 0,
    0, 0, 0, 0,
    0, 0, 0, 0,
    0, 0, 0, 0,
    0, 0, 0, 0,
    0, 0, 0, 0,
    0, 0, 0, 0,
    0, 0, 0, 0,
    0, 0, 0, 0,
    0, 0, 0, 0,
    0, 0, 0, 0,
    0, 0, 0, 0,
    0, 0, 0, 0,
    0, 0, 0, 0,
    0, 0, 0, 0,
    0, 0, 0, 0,
    0, 0, 0, 0,
    0, 0, 0, 0,
    0, 0, 0, 0,
    0, 0, 0, 0,
    0, 0, 0, 0,
    0, 0, 0, 0,
    0, 0, 0, 0,
    0, 0, 0, 0,
    0, 0, 0, 0,
    0, 0, 0, 0,
    0, 0, 0, 0,
    0, 0, 0, 0,
    0, 0, 0, 0,
    0, 0, 0, 0,
    0, 0, 0, 0,
    0, 0, 0, 0,
    0, 0, 0, 0,

  % k = 3
    0, 0, 0, 0,
    0, 0, 0, 0,
    0, 0, 0, 0,
    0, 0, 0, 0,
    0, 0, 0, 0,
    0, 0, 0, 0,
    0, 0, 0, 0,
    0, 0, 0, 0,
    0, 0, 0, 0,
    0, 0, 0, 0,
    0, 0, 0, 0,
    0, 0, 0, 0,
    0, 0, 0, 0,
    0, 0, 0, 0,
    0, 0, 0, 0,
    0, 0, 0, 0,
    0, 0, 0, 0,
    0, 0, 0, 0,
    0, 0, 0, 0,
    0, 0, 0, 0,
    0, 0, 0, 0,
    0, 0, 0, 0,
    0, 0, 0, 0,
    0, 0, 0, 0,
    0, 0, 0, 0,
    0, 0, 0, 0,
    0, 0, 0, 0,
    0, 0, 0, 0,
    0, 0, 0, 0,
    0, 0, 0, 0,
    0, 0, 0, 0,
    0, 0, 0, 0,
    0, 0, 0, 0,
    0, 0, 0, 0,
    0, 0, 0, 0
]);
d_nfa = array3d(1..3, 1..35, 1..4, [
  % k = 1
    {2}, {3}, {4, 6}, {5},
    {2}, {3}, {4, 6}, {5},
    {2}, {3}, {4, 6}, {5},
    {2}, {3}, {4, 6}, {5},
    {2}, {3}, {4, 6}, {5},
    {7}, {8}, {9}, {10},
    {11}, {12}, {13}, {14},
    {11}, {12}, {13}, {14},
    {11}, {12}, {13}, {14},
    {11}, {12}, {13}, {14},
    {15}, {16}, {17}, {18},
    {15}, {16}, {17}, {18},
    {15}, {16}, {17}, {18},
    {15}, {16}, {17}, {18},
    {19}, {20}, {21}, {22},
    {19}, {20}, {21}, {22},
    {19}, {20}, {21}, {22},
    {19}, {20}, {21}, {22},
    {23}, {24}, {25}, {26},
    {23}, {24}, {25}, {26},
    {23}, {24}, {25}, {26},
    {23}, {24}, {25}, {26},
    {}, {}, {}, {27},
    {}, {}, {}, {27},
    {}, {}, {}, {27},
    {}, {}, {}, {27},
    {28}, {29}, {30}, {31},
    {28}, {29}, {30}, {31},
    {28}, {29}, {30}, {31},
    {28}, {29}, {30}, {31},
    {28}, {29}, {30}, {31},
    {}, {}, {}, {},
    {}, {}, {}, {},
    {}, {}, {}, {},
    {}, {}, {}, {},

  % k = 2
    {2}, {3, 6}, {4}, {5},
    {2}, {3, 6}, {4}, {5},
    {2}, {3, 6}, {4}, {5},
    {2}, {3, 6}, {4}, {5},
    {2}, {3, 6}, {4}, {5},
    {7}, {8}, {9}, {10},
    {11}, {12}, {13}, {14},
    {11}, {12}, {13}, {14},
    {11}, {12}, {13}, {14},
    {11}, {12}, {13}, {14},
    {15}, {16}, {17}, {18},
    {15}, {16}, {17}, {18},
    {15}, {16}, {17}, {18},
    {15}, {16}, {17}, {18},
    {19}, {20}, {21}, {22},
    {19}, {20}, {21}, {22},
    {19}, {20}, {21}, {22},
    {19}, {20}, {21}, {22},
    {}, {}, {}, {23},
    {}, {}, {}, {23},
    {}, {}, {}, {23},
    {}, {}, {}, {23},
    {24}, {25}, {26}, {27},
    {24}, {25}, {26}, {27},
    {24}, {25}, {26}, {27},
    {24}, {25}, {26}, {27},
    {24}, {25}, {26}, {27},
    {}, {}, {}, {},
    {}, {}, {}, {},
    {}, {}, {}, {},
    {}, {}, {}, {},
    {}, {}, {}, {},
    {}, {}, {}, {},
    {}, {}, {}, {},
    {}, {}, {}, {},

  % k = 3
    {2}, {3}, {4, 6}, {5},
    {2}, {3}, {4, 6}, {5},
    {2}, {3}, {4, 6}, {5},
    {2}, {3}, {4, 6}, {5},
    {2}, {3}, {4, 6}, {5},
    {7}, {8}, {9}, {10},
    {11}, {12}, {13}, {14},
    {11}, {12}, {13}, {14},
    {11}, {12}, {13}, {14},
    {11}, {12}, {13}, {14},
    {15}, {16}, {17}, {18},
    {15}, {16}, {17}, {18},
    {15}, {16}, {17}, {18},
    {15}, {16}, {17}, {18},
    {19}, {20}, {21}, {22},
    {19}, {20}, {21}, {22},
    {19}, {20}, {21}, {22},
    {19}, {20}, {21}, {22},
    {23}, {24}, {25}, {26},
    {23}, {24}, {25}, {26},
    {23}, {24}, {25}, {26},
    {23}, {24}, {25}, {26},
    {27}, {28}, {29}, {30},
    {27}, {28}, {29}, {30},
    {27}, {28}, {29}, {30},
    {27}, {28}, {29}, {30},
    {}, {}, {}, {31},
    {}, {}, {}, {31},
    {}, {}, {}, {31},
    {}, {}, {}, {31},
    {32}, {33}, {34}, {35},
    {32}, {33}, {34}, {35},
    {32}, {33}, {34}, {35},
    {32}, {33}, {34}, {35},
    {32}, {33}, {34}, {35}
]);
